70
2 1 5
3 1 1
4 0 8
4 1 3
4 2 3
4 3 5
5 0 5
5 1 5
5 3 1
6 0 1
6 2 8
6 4 4
6 5 2
7 0 9
7 1 8
7 2 2
7 4 6
8 0 4
8 1 2
8 3 2
8 5 4
8 6 7
8 7 9
9 1 9
9 2 2
9 4 6
9 6 3
10 2 2
10 3 4
10 5 5
10 6 4
10 8 2
10 9 9
11 0 3
11 5 1
11 6 5
11 7 4
11 8 10
11 9 10
11 10 5
12 2 1
12 4 10
12 5 1
12 6 6
12 8 4
12 10 3
13 2 2
13 4 1
13 5 8
13 6 2
13 7 5
13 8 6
13 9 4
13 10 3
13 12 7
14 0 4
14 2 10
14 4 7
14 5 4
14 8 10
14 9 7
14 10 8
14 12 8
15 0 2
15 3 10
15 9 3
15 10 4
15 11 3
15 13 6
16 1 7
16 2 4
16 3 7
16 4 4
16 5 8
16 6 8
16 7 10
16 8 9
16 9 5
16 11 4
16 12 6
17 0 4
17 1 10
17 2 2
17 3 10
17 4 8
17 5 4
17 6 2
17 7 5
17 9 4
17 10 4
17 11 10
17 12 7
17 14 1
18 1 1
18 2 1
18 4 1
18 5 8
18 6 4
18 7 7
18 9 3
18 10 7
18 12 8
18 13 10
18 14 2
18 16 10
18 17 1
19 0 1
19 1 3
19 2 2
19 3 7
19 4 7
19 7 5
19 9 2
19 11 2
19 12 6
19 14 8
19 15 3
19 16 3
20 1 9
20 2 2
20 4 7
20 6 7
20 11 7
20 13 8
20 14 2
20 16 2
20 17 8
20 18 4
20 19 5
21 0 7
21 3 1
21 4 10
21 5 4
21 6 4
21 7 6
21 9 9
21 10 1
21 13 8
21 14 4
21 17 5
21 18 3
22 1 1
22 3 6
22 4 8
22 5 2
22 6 6
22 7 2
22 12 10
22 13 3
22 15 1
22 16 1
22 19 1
22 21 1
23 0 2
23 1 2
23 4 4
23 6 5
23 9 1
23 12 8
23 13 7
23 14 10
23 17 6
23 19 5
23 21 7
23 22 2
24 0 2
24 1 10
24 3 2
24 4 5
24 6 7
24 7 4
24 8 9
24 10 5
24 13 1
24 14 5
24 17 8
24 18 9
24 21 3
24 22 2
25 0 2
25 1 1
25 2 9
25 4 8
25 5 6
25 6 8
25 7 7
25 10 6
25 13 3
25 14 7
25 15 3
25 18 7
25 20 7
25 21 3
25 23 1
26 0 9
26 1 10
26 2 5
26 3 4
26 6 3
26 9 8
26 11 8
26 15 2
26 16 4
26 17 6
26 18 2
26 19 3
26 22 2
26 24 5
26 25 9
27 0 10
27 2 8
27 3 4
27 4 8
27 5 3
27 6 4
27 8 7
27 10 8
27 12 9
27 13 1
27 15 10
27 16 4
27 17 3
27 18 7
27 19 6
27 20 6
27 21 1
27 22 1
27 23 4
27 24 4
27 26 8
28 1 5
28 2 5
28 4 6
28 5 3
28 6 7
28 7 7
28 8 5
28 9 7
28 10 2
28 14 1
28 16 9
28 17 2
28 19 1
28 20 2
28 22 4
28 23 2
28 24 7
28 26 10
28 27 9
29 2 8
29 3 1
29 4 7
29 6 1
29 7 6
29 8 6
29 10 2
29 12 1
29 14 8
29 17 9
29 18 4
29 21 10
29 22 9
29 24 4
29 25 7
29 26 3
29 28 4
30 0 9
30 1 10
30 2 4
30 3 9
30 6 4
30 8 7
30 9 8
30 10 8
30 11 2
30 13 4
30 14 5
30 15 2
30 17 1
30 18 3
30 19 3
30 20 1
30 23 4
30 26 5
30 27 4
30 29 8
31 0 1
31 1 9
31 2 2
31 4 4
31 6 1
31 8 6
31 10 2
31 11 8
31 13 8
31 14 7
31 17 9
31 18 7
31 19 2
31 20 8
31 21 7
31 22 8
31 23 5
31 24 9
31 29 4
32 1 9
32 2 7
32 3 7
32 4 10
32 5 8
32 6 2
32 7 6
32 8 2
32 9 5
32 10 9
32 12 4
32 13 4
32 18 2
32 22 1
32 23 5
32 25 2
32 26 9
32 27 8
32 28 7
32 29 4
32 30 4
32 31 6
33 0 4
33 2 4
33 3 10
33 4 10
33 7 4
33 8 1
33 9 6
33 11 7
33 13 7
33 14 5
33 16 4
33 18 9
33 19 5
33 22 4
33 23 9
33 25 8
33 27 10
33 29 3
33 30 1
33 31 4
33 32 1
34 0 3
34 1 1
34 2 10
34 3 7
34 8 8
34 10 10
34 11 8
34 13 1
34 14 8
34 18 2
34 19 5
34 20 1
34 21 7
34 22 8
34 23 9
34 24 1
34 25 1
34 29 4
34 32 6
35 2 4
35 4 6
35 6 6
35 7 1
35 8 6
35 9 4
35 12 3
35 13 5
35 14 9
35 17 10
35 19 1
35 20 9
35 21 1
35 22 3
35 23 2
35 24 6
35 25 4
35 26 3
35 31 3
36 0 10
36 1 9
36 2 5
36 3 10
36 5 9
36 7 7
36 9 3
36 13 8
36 14 10
36 15 10
36 16 8
36 17 5
36 19 5
36 21 3
36 23 7
36 24 10
36 26 5
36 28 7
36 29 5
36 32 3
36 33 10
36 34 8
36 35 5
37 0 7
37 1 10
37 2 4
37 3 6
37 5 4
37 7 1
37 9 8
37 10 8
37 12 5
37 13 10
37 15 7
37 19 8
37 20 7
37 21 1
37 22 4
37 27 10
37 28 5
37 31 10
37 33 1
37 35 9
37 36 9
38 0 6
38 3 4
38 4 7
38 5 5
38 6 2
38 7 9
38 8 3
38 9 7
38 10 6
38 12 2
38 13 9
38 14 10
38 15 8
38 17 5
38 18 4
38 19 8
38 21 8
38 22 6
38 24 5
38 25 6
38 26 5
38 27 2
38 29 10
38 30 1
38 31 5
38 32 5
38 34 9
38 35 5
38 36 7
39 0 2
39 1 10
39 2 2
39 3 3
39 4 6
39 6 1
39 10 2
39 11 10
39 13 7
39 14 1
39 17 10
39 20 8
39 22 1
39 23 8
39 24 4
39 27 5
39 28 7
39 29 5
39 30 10
39 31 3
39 32 1
39 33 9
39 36 8
39 37 5
39 38 10
40 0 2
40 1 7
40 3 1
40 4 10
40 5 3
40 6 10
40 10 8
40 11 3
40 15 2
40 17 5
40 18 7
40 21 2
40 23 9
40 24 7
40 25 1
40 26 3
40 27 6
40 28 8
40 31 9
40 32 10
40 34 5
40 35 1
40 39 1
41 0 2
41 1 5
41 2 2
41 3 5
41 4 6
41 6 10
41 7 7
41 8 2
41 9 5
41 10 10
41 12 1
41 19 3
41 21 4
41 22 2
41 26 8
41 27 8
41 28 1
41 29 1
41 30 6
41 31 5
41 34 2
41 35 5
41 36 8
41 37 7
42 2 4
42 3 2
42 5 7
42 7 9
42 8 3
42 11 2
42 12 9
42 15 8
42 16 7
42 17 4
42 18 5
42 19 5
42 20 8
42 22 8
42 23 3
42 25 7
42 30 6
42 31 10
42 35 4
42 37 3
42 38 5
42 39 7
42 41 1
43 0 3
43 1 5
43 4 1
43 5 5
43 7 9
43 10 4
43 11 4
43 12 8
43 14 2
43 18 2
43 19 1
43 20 2
43 21 4
43 23 5
43 25 3
43 28 3
43 29 2
43 31 1
43 32 2
43 33 2
43 34 9
43 35 5
43 39 8
43 40 3
43 41 4
43 42 5
44 2 8
44 3 7
44 4 9
44 5 1
44 6 1
44 7 6
44 8 1
44 14 1
44 16 10
44 17 4
44 19 9
44 20 8
44 21 6
44 22 8
44 23 5
44 25 1
44 28 8
44 29 5
44 32 5
44 35 9
44 36 2
44 37 8
44 38 7
44 39 2
44 42 2
44 43 2
45 1 4
45 2 9
45 3 6
45 4 1
45 6 8
45 8 8
45 9 4
45 11 2
45 13 3
45 15 7
45 20 5
45 23 7
45 24 1
45 25 3
45 26 2
45 27 6
45 30 7
45 31 10
45 33 5
45 37 7
45 38 8
45 40 1
45 41 9
45 42 6
45 44 4
46 0 3
46 1 10
46 4 2
46 6 1
46 7 9
46 9 6
46 10 8
46 11 3
46 16 6
46 17 2
46 19 6
46 20 8
46 22 5
46 23 2
46 24 10
46 26 5
46 27 1
46 29 2
46 31 7
46 32 3
46 37 2
46 38 6
46 43 9
46 44 7
47 0 10
47 2 10
47 3 3
47 4 7
47 5 8
47 7 2
47 8 3
47 9 5
47 12 3
47 15 8
47 17 7
47 20 9
47 24 9
47 25 7
47 26 6
47 27 9
47 28 3
47 29 9
47 30 3
47 33 2
47 34 7
47 35 4
47 36 4
47 37 4
47 39 1
47 40 1
47 43 1
47 46 6
48 0 7
48 2 1
48 3 3
48 4 9
48 6 8
48 9 1
48 10 8
48 12 8
48 15 1
48 17 2
48 18 3
48 19 7
48 20 4
48 21 4
48 23 4
48 25 9
48 26 5
48 28 10
48 29 9
48 30 9
48 31 6
48 32 4
48 34 1
48 35 10
48 36 10
48 37 2
48 38 3
48 40 4
48 41 3
48 43 1
48 47 10
49 0 10
49 1 2
49 2 2
49 4 7
49 5 3
49 8 5
49 9 4
49 10 1
49 11 5
49 12 10
49 14 10
49 17 2
49 18 4
49 20 5
49 21 7
49 23 4
49 25 2
49 26 2
49 27 4
49 29 3
49 30 6
49 31 1
49 34 9
49 36 2
49 38 3
49 41 4
49 42 5
49 43 4
49 44 5
49 46 9
49 47 3
49 48 10
50 0 2
50 1 2
50 2 9
50 5 9
50 6 10
50 9 6
50 10 8
50 12 5
50 13 8
50 16 10
50 17 1
50 19 9
50 21 5
50 24 2
50 25 8
50 26 7
50 28 8
50 31 9
50 34 7
50 35 6
50 38 5
50 39 2
50 40 7
50 42 4
50 44 6
50 45 6
50 46 7
50 49 6
51 1 1
51 2 5
51 3 4
51 4 7
51 6 6
51 7 2
51 9 3
51 11 7
51 14 3
51 16 10
51 18 1
51 19 4
51 20 9
51 21 3
51 22 4
51 24 3
51 25 2
51 26 6
51 27 2
51 31 3
51 32 3
51 33 8
51 35 5
51 36 6
51 37 1
51 38 9
51 40 5
51 41 8
51 42 9
51 43 5
51 44 4
51 45 9
51 46 3
51 48 6
51 50 6
52 0 1
52 2 3
52 3 9
52 4 4
52 5 3
52 8 6
52 11 1
52 12 7
52 14 5
52 19 8
52 20 6
52 21 4
52 22 7
52 25 1
52 30 5
52 32 6
52 35 2
52 36 10
52 39 4
52 40 6
52 41 1
52 42 3
52 43 2
52 44 8
52 48 2
52 49 5
52 50 2
53 0 7
53 1 2
53 2 3
53 4 8
53 6 8
53 7 6
53 8 4
53 12 10
53 17 8
53 18 10
53 20 5
53 21 6
53 22 4
53 24 7
53 27 8
53 28 8
53 29 5
53 31 2
53 32 1
53 34 3
53 35 8
53 36 5
53 38 3
53 41 9
53 42 10
53 49 6
54 2 10
54 3 1
54 5 6
54 9 9
54 10 8
54 13 9
54 14 3
54 17 9
54 18 5
54 20 5
54 21 2
54 24 7
54 25 4
54 26 10
54 29 2
54 31 10
54 33 6
54 36 5
54 37 4
54 38 1
54 39 2
54 40 1
54 43 10
54 44 2
54 45 5
54 47 5
54 48 6
54 50 4
54 52 8
54 53 4
55 0 1
55 1 6
55 2 5
55 3 7
55 4 6
55 5 7
55 7 4
55 8 1
55 9 5
55 11 1
55 13 4
55 14 6
55 15 1
55 17 4
55 18 6
55 19 1
55 20 10
55 21 7
55 22 9
55 23 6
55 24 4
55 26 10
55 30 7
55 31 2
55 34 1
55 36 10
55 38 8
55 41 7
55 42 9
55 44 4
55 49 6
55 52 6
55 53 6
56 0 3
56 1 7
56 5 6
56 6 7
56 7 3
56 9 6
56 10 9
56 11 10
56 12 10
56 13 6
56 15 1
56 16 8
56 23 3
56 24 6
56 27 10
56 28 3
56 30 4
56 32 3
56 33 5
56 34 2
56 35 10
56 37 2
56 38 4
56 39 5
56 42 2
56 43 7
56 46 1
56 47 1
56 49 4
56 55 2
57 0 3
57 1 2
57 3 9
57 4 5
57 6 10
57 8 1
57 9 5
57 12 6
57 14 7
57 15 2
57 16 9
57 17 6
57 19 3
57 20 2
57 21 5
57 22 3
57 23 5
57 25 4
57 26 3
57 27 3
57 29 3
57 32 2
57 33 8
57 34 2
57 36 6
57 37 7
57 38 2
57 39 7
57 41 10
57 43 7
57 46 4
57 47 4
57 48 8
57 50 5
57 55 9
57 56 3
58 0 10
58 1 9
58 2 4
58 3 1
58 5 9
58 6 5
58 8 8
58 9 6
58 11 5
58 12 6
58 16 3
58 19 10
58 20 9
58 22 8
58 24 8
58 26 8
58 29 6
58 32 1
58 33 5
58 34 3
58 36 4
58 39 5
58 40 1
58 42 7
58 43 10
58 45 10
58 46 9
58 48 1
58 50 4
58 52 2
58 54 4
58 56 2
58 57 8
59 2 1
59 4 1
59 5 9
59 6 1
59 7 1
59 8 1
59 11 6
59 12 7
59 15 2
59 16 2
59 17 9
59 18 6
59 20 1
59 21 7
59 23 1
59 24 4
59 25 8
59 26 9
59 27 3
59 29 8
59 30 5
59 31 2
59 32 2
59 34 8
59 37 10
59 40 1
59 41 1
59 42 5
59 46 7
59 48 8
59 49 9
59 50 9
59 54 7
59 55 8
59 56 6
59 58 9
60 0 3
60 1 3
60 2 5
60 3 8
60 7 8
60 9 9
60 10 6
60 12 3
60 14 5
60 15 1
60 16 4
60 17 5
60 19 2
60 20 3
60 21 10
60 23 2
60 25 8
60 28 10
60 30 7
60 31 9
60 32 1
60 33 10
60 36 3
60 37 5
60 39 5
60 41 3
60 43 6
60 50 5
60 52 7
60 53 4
60 54 4
60 55 3
60 56 6
60 58 2
61 0 7
61 2 6
61 3 4
61 4 2
61 6 4
61 7 8
61 8 2
61 9 10
61 10 6
61 11 2
61 12 4
61 15 10
61 16 9
61 17 8
61 19 10
61 21 9
61 23 1
61 24 10
61 25 5
61 27 3
61 29 6
61 30 3
61 31 6
61 32 9
61 33 3
61 36 6
61 38 10
61 39 4
61 41 4
61 42 1
61 46 8
61 48 5
61 49 9
61 50 10
61 51 3
61 52 7
61 55 9
61 57 9
61 59 4
61 60 10
62 2 1
62 3 8
62 4 10
62 5 8
62 6 4
62 8 1
62 9 7
62 11 5
62 12 4
62 13 1
62 14 5
62 16 1
62 18 8
62 19 10
62 20 9
62 23 10
62 26 2
62 27 6
62 28 2
62 29 10
62 30 6
62 31 9
62 32 7
62 34 8
62 35 1
62 36 8
62 37 5
62 38 5
62 40 6
62 41 6
62 43 1
62 46 1
62 47 10
62 48 3
62 52 10
62 53 2
62 54 10
62 55 2
62 58 1
63 0 9
63 1 1
63 3 7
63 4 3
63 5 7
63 8 9
63 9 8
63 11 5
63 12 9
63 13 3
63 14 4
63 17 1
63 18 4
63 19 2
63 22 2
63 25 2
63 28 10
63 29 1
63 31 3
63 32 6
63 35 5
63 36 5
63 38 2
63 39 10
63 40 9
63 43 9
63 44 8
63 45 8
63 48 6
63 49 4
63 51 5
63 53 3
63 54 1
63 55 6
63 56 5
63 57 1
63 59 3
64 1 4
64 4 2
64 6 6
64 8 8
64 10 5
64 11 8
64 12 9
64 13 9
64 16 4
64 17 1
64 18 1
64 19 4
64 20 2
64 21 4
64 22 2
64 23 7
64 24 4
64 25 6
64 26 1
64 27 1
64 28 5
64 29 8
64 30 6
64 31 9
64 32 10
64 33 6
64 35 3
64 37 5
64 40 7
64 41 2
64 42 2
64 45 5
64 46 7
64 47 7
64 48 9
64 50 7
64 51 9
64 53 9
64 54 8
64 55 10
64 57 8
64 58 4
65 1 5
65 3 8
65 5 7
65 8 8
65 9 2
65 11 6
65 12 9
65 13 1
65 17 4
65 18 4
65 21 10
65 22 1
65 25 7
65 27 8
65 28 8
65 29 10
65 30 10
65 32 3
65 33 9
65 34 7
65 35 6
65 37 3
65 38 5
65 40 9
65 42 10
65 43 1
65 45 2
65 46 4
65 48 1
65 50 8
65 51 4
65 52 1
65 53 7
65 56 5
65 57 3
65 58 9
65 59 3
65 60 2
65 61 1
65 62 4
65 63 7
65 64 1
66 2 3
66 5 4
66 7 5
66 9 7
66 11 10
66 12 5
66 16 9
66 18 5
66 19 10
66 21 6
66 22 2
66 23 3
66 24 2
66 25 8
66 27 7
66 28 3
66 30 1
66 31 6
66 32 8
66 33 5
66 36 10
66 37 7
66 38 1
66 39 5
66 40 1
66 44 10
66 45 7
66 46 8
66 47 6
66 48 7
66 49 3
66 51 1
66 52 9
66 53 5
66 54 7
66 55 9
66 56 4
66 59 8
66 60 6
66 64 2
66 65 3
67 0 5
67 1 9
67 4 6
67 5 3
67 6 2
67 7 9
67 10 1
67 11 9
67 12 6
67 14 8
67 15 9
67 18 8
67 19 9
67 22 8
67 24 9
67 27 8
67 28 5
67 29 5
67 31 10
67 32 7
67 33 1
67 35 5
67 38 8
67 40 6
67 41 5
67 42 4
67 49 2
67 50 3
67 51 7
67 52 3
67 53 7
67 54 4
67 55 8
67 56 1
67 57 4
67 61 1
67 62 5
67 63 10
67 64 7
67 65 10
67 66 10
68 0 10
68 2 3
68 4 4
68 5 10
68 7 3
68 10 7
68 13 9
68 15 5
68 17 4
68 18 1
68 19 7
68 20 7
68 21 1
68 22 9
68 23 5
68 24 4
68 25 5
68 28 9
68 29 4
68 31 7
68 32 2
68 34 2
68 35 7
68 36 2
68 40 10
68 42 2
68 43 10
68 48 8
68 49 6
68 50 4
68 51 5
68 56 10
68 57 9
68 61 2
68 62 5
68 63 7
68 64 9
68 65 2
68 66 10
69 0 10
69 3 5
69 4 2
69 6 3
69 7 9
69 9 2
69 10 1
69 11 8
69 14 9
69 15 9
69 16 1
69 17 3
69 18 10
69 20 3
69 22 9
69 24 9
69 25 6
69 26 2
69 27 8
69 28 5
69 29 5
69 30 9
69 31 6
69 32 7
69 33 4
69 34 8
69 35 1
69 37 7
69 39 10
69 41 9
69 42 1
69 44 1
69 49 9
69 51 6
69 52 1
69 56 8
69 57 4
69 60 8
69 61 5
69 62 10
69 64 9
69 67 10
